#----Variable section----#
units                   real
boundary                p p p
special_bonds           lj/coul 1.0 1.0 1.0
atom_style              full
bond_style              harmonic
angle_style             harmonic
read_data               data.lmp
timestep                0.25
pair_style    		reaxff NULL lgvdw no safezone 2.0 mincap 100
pair_coeff   		* * ffield.reaxff H  O  K  O  H

bond_coeff      	1 0.00 0.95720
bond_coeff      	2 0.00 0.95720
angle_coeff     	1 0.00 104.52

fix 		qeqfix all qeq/reaxff 1 0.0 10.0 1.0e-6 reaxff 
variable        myDensity    equal  1.000

variable        sname index koh_watbox
variable        targetP equal 1.0 
variable        targetT1 equal 300



fix                  OHfixed all shake 0.001 20 0 b 1 a 1
fix                  Momt all momentum 1 linear 1 1 1 angular


log             ${sname}.10K.eng
thermo          1
dump            1 all custom 1000 ${sname}.10K.lammps id type xu yu zu vx vy vz mol  q
thermo_style    custom step temp etotal pe ke v_eb v_ew v_ehb v_elp v_ev v_eqeq press pxx pyy pzz pxy pxz pyz
velocity        all create 10.0 12345678 dist uniform
fix             1 all nvt temp  10.0 10.0 100.0
run             1000
unfix           1
undump          1


log             ${sname}.heatTo${targetT1}K.eng
thermo          100
dump            1 all custom 100 ${sname}.heatTo${targetT1}K.lammps id type xu yu zu vx vy vz mol q
thermo_style    custom step temp etotal pe ke v_eb v_ew v_ehb v_elp v_ev v_eqeq press pxx pyy pzz pxy pxz pyz
fix             1 all nvt temp  10.0 ${targetT1}  100.0
run             10000
unfix           1
undump          1
         .

log             ${sname}.relax${targetT1}K.eng
thermo          100
dump            1 all custom 100 ${sname}.relax${targetT1}K.lammps id type xu yu zu vx vy vz mol  q
thermo_style    custom step temp etotal pe ke v_eb v_ew v_ehb v_elp v_ev v_eqeq press pxx pyy pzz pxy pxz pyz
fix             1 all nvt temp ${targetT1} ${targetT1} 100.0
run             500000
unfix           1
undump          1
write_restart restart.relax${targetT1}K


unfix           OHfixed
timestep        0.1


         .

log             ${sname}.NVT${targetT1}K.eng
thermo          1
dump            1 all custom 500 ${sname}.NVT${targetT1}K.lammps id type xu yu zu vx vy vz mol q
thermo_style    custom step temp etotal pe ke v_eb v_ew v_ehb v_elp v_ev v_eqeq press pxx pyy pzz pxy pxz pyz
fix             1 all nvt temp ${targetT1} ${targetT1} 100.0
run             5000000
unfix           1
undump          1
write_restart restart.NVT${targetT1}K


