pair_coeff    1    1 lj/cut/coul/long     0.000000     0.000000  # Hw Hw
pair_coeff    1    2 lj/cut/coul/long     0.000000     0.000000  # Hw Ow
pair_coeff    1    3 lj/cut/coul/long     0.000000     0.000000  # Hw Cs
pair_coeff    1    4 lj/cut/coul/long     0.000000     0.000000  # Hw O
pair_coeff    1    5 lj/cut/coul/long     0.000000     0.000000  # Hw H
pair_coeff    2    2 lj/cut/coul/long     0.000000     0.000000  # Ow Ow
pair_coeff    2    3 lj/cut/coul/long     0.000000     0.000000  # Ow Cs
pair_coeff    2    4 lj/cut/coul/long     0.000000     0.000000  # Ow O
pair_coeff    2    5 lj/cut/coul/long     0.000000     0.000000  # Ow H
pair_coeff    3    3 lj/cut/coul/long     0.000000     0.000000  # Cs Cs
pair_coeff    3    4 lj/cut/coul/long     0.000000     0.000000  # Cs O
pair_coeff    3    5 lj/cut/coul/long     0.000000     0.000000  # Cs H
pair_coeff    4    4 lj/cut/coul/long     0.000000     0.000000  # O O
pair_coeff    4    5 lj/cut/coul/long     0.000000     0.000000  # O H
pair_coeff    5    5 lj/cut/coul/long     0.000000     0.000000  # H H
